
Gurobi 7.0.2 (win64, Python) logging started 11/27/18 11:03:39

Error reading LP format file H:\TUM-PC\Dokumente\GitHub\froehlie\urbs-for-parallel-working\urbs\tmp4p1_2w8n.pyomo.lp at line 67362
Malformed term in expression
Neighboring tokens: " nan x14598 +1 x392970 = 0 c_e_x794981_: "

